(set-info :smt-lib-version 2.6)
(set-logic QF_UFLRA)
(set-info :source |
MathSat group

|)
(set-info :category "random")
(set-info :status sat)
(declare-fun x0 () Real)
(declare-fun x1 () Real)
(declare-fun x2 () Real)
(declare-fun x3 () Real)
(declare-fun x4 () Real)
(declare-fun x5 () Real)
(declare-fun x6 () Real)
(declare-fun x7 () Real)
(declare-fun x8 () Real)
(declare-fun x9 () Real)
(declare-fun x10 () Real)
(declare-fun x11 () Real)
(declare-fun x12 () Real)
(declare-fun x13 () Real)
(declare-fun x14 () Real)
(declare-fun x15 () Real)
(declare-fun x16 () Real)
(declare-fun x17 () Real)
(declare-fun x18 () Real)
(declare-fun x19 () Real)
(declare-fun x20 () Real)
(declare-fun x21 () Real)
(declare-fun x22 () Real)
(declare-fun x23 () Real)
(declare-fun x24 () Real)
(declare-fun x25 () Real)
(declare-fun x26 () Real)
(declare-fun x27 () Real)
(declare-fun x28 () Real)
(declare-fun x29 () Real)
(declare-fun x30 () Real)
(declare-fun x31 () Real)
(declare-fun x32 () Real)
(declare-fun x33 () Real)
(declare-fun x34 () Real)
(declare-fun x35 () Real)
(declare-fun x36 () Real)
(declare-fun x37 () Real)
(declare-fun x38 () Real)
(declare-fun x39 () Real)
(declare-fun f0_1 (Real) Real)
(declare-fun f0_2 (Real Real) Real)
(declare-fun f0_3 (Real Real Real) Real)
(declare-fun f0_4 (Real Real Real Real) Real)
(declare-fun P0 () Bool)
(declare-fun P1 () Bool)
(declare-fun P2 () Bool)
(declare-fun P3 () Bool)
(declare-fun P4 () Bool)
(declare-fun P5 () Bool)
(declare-fun P6 () Bool)
(declare-fun P7 () Bool)
(declare-fun P8 () Bool)
(declare-fun P9 () Bool)
(declare-fun P10 () Bool)
(declare-fun P11 () Bool)
(declare-fun P12 () Bool)
(declare-fun P13 () Bool)
(declare-fun P14 () Bool)
(declare-fun P15 () Bool)
(declare-fun P16 () Bool)
(declare-fun P17 () Bool)
(declare-fun P18 () Bool)
(declare-fun P19 () Bool)
(declare-fun P20 () Bool)
(declare-fun P21 () Bool)
(declare-fun P22 () Bool)
(declare-fun P23 () Bool)
(declare-fun P24 () Bool)
(declare-fun P25 () Bool)
(declare-fun P26 () Bool)
(declare-fun P27 () Bool)
(declare-fun P28 () Bool)
(declare-fun P29 () Bool)
(declare-fun P30 () Bool)
(declare-fun P31 () Bool)
(declare-fun P32 () Bool)
(declare-fun P33 () Bool)
(declare-fun P34 () Bool)
(declare-fun P35 () Bool)
(declare-fun P36 () Bool)
(declare-fun P37 () Bool)
(declare-fun P38 () Bool)
(declare-fun P39 () Bool)
(assert (let ((?v_69 (< (- (- (* 2 x16) (* 3 x16)) (* 8 x30)) 30)) (?v_131 (< (- (+ (* 2 x21) (* 32 x18)) (* 7 x12)) 38)) (?v_45 (distinct (+ (- (* 21 x21) (* 13 x25)) (* 29 x28)) 49)) (?v_17 (* 2 x32)) (?v_31 (<= (+ (- (* 14 x28) (* 47 x6)) (* 27 x35)) 40)) (?v_1 (<= (- (- (* 50 x32) (* 17 x38)) (* 23 x37)) 4)) (?v_46 (<= (- (+ (* 54 x34) (* 7 x21)) (* 39 x16)) 0)) (?v_155 (< (+ (- (* 18 x25) (* 36 x27)) (* 20 x16)) 15)) (?v_81 (< (- (- (* 26 x22) (* 33 x16)) (* 3 x20)) 12)) (?v_90 (< (- (- (* 8 x24) (* 56 x22)) (* 20 x17)) 29)) (?v_94 (f0_1 x10))) (let ((?v_179 (= x7 ?v_94)) (?v_187 (= (f0_2 x7 x1) (f0_2 x11 x27))) (?v_78 (distinct (f0_1 x8) x20)) (?v_115 (distinct (f0_2 x13 x33) (f0_2 x19 x17))) (?v_26 (f0_1 x22))) (let ((?v_75 (= ?v_26 x36)) (?v_20 (distinct (f0_2 x18 x9) x13)) (?v_119 (f0_1 x29))) (let ((?v_37 (= ?v_119 x34)) (?v_135 (distinct x24 x25)) (?v_116 (distinct (f0_2 x17 x23) (f0_1 x32))) (?v_92 (= (f0_2 x36 x6) (f0_1 x24))) (?v_77 (= (f0_2 x21 x24) (f0_2 x2 x11))) (?v_55 (distinct x26 x15)) (?v_60 (= (f0_1 x4) (f0_2 x14 x0))) (?v_11 (f0_1 x7))) (let ((?v_67 (= ?v_11 x26)) (?v_102 (f0_1 x30))) (let ((?v_184 (= (f0_1 x18) ?v_102)) (?v_148 (distinct x14 x18)) (?v_33 (distinct ?v_26 x31)) (?v_9 (distinct (f0_1 x15) ?v_11)) (?v_41 (f0_1 x36))) (let ((?v_88 (distinct (f0_2 x13 x13) ?v_41)) (?v_113 (distinct (f0_2 x34 x39) (f0_1 x33))) (?v_76 (= x38 x35)) (?v_118 (distinct x27 ?v_41)) (?v_86 (= x32 (f0_2 x6 x35))) (?v_159 (distinct (f0_1 x39) (f0_1 x21))) (?v_139 (distinct x22 (f0_1 x12))) (?v_70 (distinct x20 x38)) (?v_153 (= x34 ?v_11)) (?v_143 (distinct ?v_94 (f0_1 x31))) (?v_91 (f0_1 x25))) (let ((?v_101 (= x39 ?v_91)) (?v_93 (= x36 x19)) (?v_62 (distinct ?v_91 (f0_2 x9 x18))) (?v_18 (distinct (f0_2 x16 x27) (f0_1 x34))) (?v_0 (distinct x25 (f0_1 x13))) (?v_147 (= x24 x11)) (?v_89 (= x32 (f0_1 x38))) (?v_109 (= x14 (f0_2 x18 x7))) (?v_150 (= ?v_119 (f0_2 x39 x38))) (?v_144 (= (f0_2 x19 x11) (f0_1 x5))) (?v_3 (= (f0_2 x28 x21) (f0_1 x9))) (?v_126 (= ?v_102 (f0_2 x21 x17))) (?v_134 (not P1))) (let ((?v_79 (not ?v_89)) (?v_172 (not ?v_109)) (?v_27 (not ?v_0)) (?v_61 (not ?v_45)) (?v_49 (not ?v_37)) (?v_203 (not P15)) (?v_36 (not ?v_3)) (?v_12 (not ?v_113)) (?v_68 (not P17)) (?v_13 (not ?v_20)) (?v_38 (not P39)) (?v_71 (not ?v_155)) (?v_29 (not ?v_81)) (?v_7 (not ?v_18)) (?v_163 (not P5)) (?v_21 (not ?v_1)) (?v_5 (not P37)) (?v_149 (not P7)) (?v_52 (not P14)) (?v_112 (not P34)) (?v_34 (not P32)) (?v_73 (not ?v_88)) (?v_44 (not P31)) (?v_72 (not ?v_31)) (?v_106 (not ?v_67)) (?v_15 (not ?v_148)) (?v_16 (not P9)) (?v_47 (not P35)) (?v_66 (not P24)) (?v_110 (not P29)) (?v_164 (not P27)) (?v_43 (not P10)) (?v_50 (not P20)) (?v_108 (not ?v_131)) (?v_182 (not P16)) (?v_53 (not ?v_75)) (?v_74 (not ?v_55)) (?v_84 (not P2)) (?v_165 (not ?v_33)) (?v_63 (not ?v_60)) (?v_154 (not P8)) (?v_190 (not P25)) (?v_114 (not P12)) (?v_57 (not ?v_77)) (?v_48 (not ?v_46)) (?v_197 (not P13)) (?v_166 (not P3)) (?v_141 (not P23)) (?v_137 (not P0)) (?v_95 (not ?v_69)) (?v_111 (not ?v_115)) (?v_99 (not P36)) (?v_104 (not P18)) (?v_142 (not P11)) (?v_96 (not ?v_86)) (?v_177 (not ?v_147)) (?v_146 (not ?v_126)) (?v_125 (not P28)) (?v_107 (not P26)) (?v_120 (not P33)) (?v_100 (not ?v_153)) (?v_151 (not ?v_93)) (?v_140 (not ?v_139)) (?v_195 (not ?v_179)) (?v_162 (not ?v_62)) (?v_105 (not ?v_184)) (?v_169 (not ?v_90)) (?v_198 (not ?v_159)) (?v_130 (not ?v_116)) (?v_167 (not ?v_76)) (?v_193 (not ?v_70)) (?v_180 (not ?v_118)) (?v_176 (not P21)) (?v_161 (not ?v_101)) (?v_145 (not P30)) (?v_202 (not P22)) (?v_189 (not ?v_9)) (?v_205 (not ?v_78)) (?v_170 (not ?v_92)) (?v_157 (not ?v_150)) (?v_168 (not P19)) (?v_173 (not ?v_187)) (?v_181 (not ?v_144)) (?v_171 (not ?v_143)) (?v_200 (not ?v_135)) (?v_194 (not P38)) (?v_136 (distinct (+ ?v_17 (* 3 x10)) 53)) (?v_4 (< (+ (* 12 x33) (* 37 x6) (* 34 x21)) 50)) (?v_6 (<= (+ (- (* 45 x22) (* 50 x38)) x23) 39))) (let ((?v_178 (not ?v_6)) (?v_54 (not ?v_4)) (?v_188 (not ?v_136)) (?v_28 (<= (+ (* 4 x36) (* 16 x17) (* 13 x21)) (- 13)))) (let ((?v_132 (not ?v_28)) (?v_2 (< (+ (- (* (- 1) x2) (* 3 x31)) (* 20 x33)) 43)) (?v_103 (<= (+ (- (* (- 57) x16) (* 11 x38)) (* 43 x20)) (- 40)))) (let ((?v_83 (not ?v_103)) (?v_152 (= (- (+ (* 34 x29) (* 34 x35)) (* 25 x25)) (- 54)))) (let ((?v_8 (not ?v_152)) (?v_39 (not ?v_2)) (?v_42 (< (+ (- (* (- 11) x15) (* 10 x12)) (* 2 x29)) 59))) (let ((?v_14 (not ?v_42)) (?v_19 (< (- (+ (* (- 12) x15) (* 54 x18)) (* 2 x26)) (- 20))) (?v_40 (<= (+ (- (* 24 x24) (* 23 x24)) (* 9 x23)) (- 35)))) (let ((?v_56 (not ?v_40)) (?v_10 (< (- (- (* 35 x22) (* 4 x34)) (* 15 x2)) (- 33))) (?v_58 (<= (+ (- (* (- 17) x0) 0) (* 23 x1)) 58))) (let ((?v_32 (not ?v_58)) (?v_25 (<= (- (- (* (- 27) x10) (* 31 x16)) (* 23 x39)) (- 57))) (?v_35 (< (+ (- (* (- 53) x20) (* 24 x25)) (* 19 x36)) 48)) (?v_23 (<= (+ (- (* 29 x1) (* 31 x19)) (* 35 x32)) (- 40)))) (let ((?v_22 (not ?v_23)) (?v_64 (distinct (- (+ (* (- 37) x10) (* 9 x9)) 0) 50)) (?v_85 (< (+ (* (- 22) x5) (* 52 x25) (* 14 x13)) 16)) (?v_59 (distinct (- (+ (* (- 19) x18) (* 35 x11)) (* 8 x6)) (- 52))) (?v_24 (<= (+ (- (* 17 x39) 0) ?v_17) (- 55))) (?v_30 (<= (+ (- 0 (* 57 x3)) (* 28 x2)) (- 17)))) (let ((?v_117 (not ?v_24)) (?v_183 (<= (- (+ (* (- 53) x14) (* 20 x8)) (* 5 x26)) (- 34)))) (let ((?v_122 (not ?v_183)) (?v_51 (not ?v_19)) (?v_185 (distinct (+ (- (* (- 39) x12) (* 41 x25)) x34) 43))) (let ((?v_97 (not ?v_185)) (?v_65 (< (+ (* (- 29) x2) (* 10 x34) (* 56 x28)) (- 8))) (?v_87 (distinct (- (+ (* 55 x34) x2) (* 42 x15)) (- 59))) (?v_80 (not ?v_59)) (?v_201 (not ?v_64))) (let ((?v_199 (not ?v_65)) (?v_123 (<= (+ (* (- 32) x11) (* 27 x27) (* 32 x10)) 43))) (let ((?v_158 (not ?v_123)) (?v_82 (distinct (- (- (* (- 54) x24) (* 48 x11)) (* 6 x30)) 0))) (let ((?v_127 (not ?v_82)) (?v_186 (<= (+ (* (- 36) x14) (* 4 x30) (* 43 x31)) (- 35)))) (let ((?v_174 (not ?v_186)) (?v_98 (< (+ (* 12 x21) (* 51 x17) (* 20 x3)) (- 59))) (?v_204 (not ?v_87)) (?v_160 (not ?v_85)) (?v_133 (not ?v_35))) (let ((?v_156 (not ?v_98)) (?v_128 (not ?v_30)) (?v_175 (not ?v_25)) (?v_121 (< (- (+ (* (- 53) x9) (* 13 x29)) (* 38 x22)) (- 31)))) (let ((?v_138 (not ?v_121)) (?v_124 (<= (+ (* (- 17) x29) (* 12 x35) (* 57 x37)) (- 37))) (?v_129 (< (+ (- (* (- 24) x1) (* 33 x6)) (* 38 x10)) (- 40)))) (let ((?v_191 (not ?v_129)) (?v_196 (not ?v_10)) (?v_192 (not ?v_124))) (and (and (and (and (and (and (and (and (and (and (and (and (and (and (and (and (and (and (and (and (and (and (and (and (and (and (and (and (and (and (and (and (and (and (and (and (and (and (and (and (and (and (and (and (and (and (and (and (and (and (and (and (and (and (and (and (and (and (and (and (and (and (and (and (and (and (and (and (and (and (and (and (and (and (and (and (and (and (and (and (and (and (and (and (and (and (and (and (and (and (and (and (and (and (and (and (and (and (and (and (and (and (and (and (and (and (and (and (and (and (and (and (and (and (and (and (and (and (and (and (and (and (and (and (and (and (and (and (and (and (and (and (and (and (and (and (and (and (and (and (and (and (and (and (and (and (and (and (and (and (and (and (and (and (and (and (and (and (and (and (and (and (and (and (and (and (and (and (and (and (and (and (and (and (and (and (and (and (and (and (and (and (and (and (and (and (and (and (and (and (and (and (and (and (and (and (and (and (and (and (and (and (and (and (and (and (and (and (and (and (and (and (and (and (and (and (and (and (and (and (and (and (and (and (and (and (and (and (and (and (and (and (and (and (and (and (and (and (and (and (and (and (and (and (and (and (and (and (and (and (and (and (and (and (and (and (and (and (and (and (and (and (and (and (and (and (and (and (and (and (and (and (and (and (and (and (and (and (and (and (and (and (and (and (and (and (and (and (and (and (and (and (and (and (and (and (and (and (and (and (and (and (and (and (and (and (and (and (and (and (and (and (and (and (and (and (and (and (and (and (and (and (and (and (and (and (and (and (and (and (and (and (and (and (and (and (and (and (and (and (and (and (and (and (and (and (and (and (and (and (and (and (and (and (and (and (and (and (and (and (and (and (and (and (and (and (and (and (and (and (and (and (and (and (and (and (and (and (and (and (and (and (and (and (and (and (and (and (and (and (and (and (and (and (and (and (and (and (and (and (and (and (and (and (and (and (and (and (and (and (and (and (and (and (and (and (and (and (and (and (and (and (and (and (and (and (and (and (and (and (and (and (and (and (and (and (and (and (and (and (and (and (and (and (and (and (and (and (and (and (and (and (and (and (and (and (and (and (and (and (and (and (and (and (and (and (and (and (and (and (and (and (and (and (and (and (and (and (and (or (or ?v_134 ?v_79) P3) (or (or ?v_132 ?v_172) ?v_27)) (or (or ?v_136 ?v_61) P0)) (or (or ?v_2 ?v_49) P15)) (or (or ?v_1 ?v_0) ?v_203)) (or (or ?v_83 ?v_1) ?v_36)) (or (or ?v_33 ?v_8) ?v_12)) (or (or ?v_68 ?v_13) ?v_39)) (or (or P4 ?v_38) P11)) (or (or ?v_71 ?v_29) ?v_14)) (or (or ?v_19 ?v_7) P20)) (or (or ?v_163 ?v_90) ?v_56)) (or (or ?v_4 P37) ?v_21)) (or (or ?v_135 ?v_5) ?v_3)) (or (or ?v_149 ?v_4) P0)) (or (or ?v_52 ?v_9) ?v_178)) (or (or ?v_112 ?v_10) ?v_5)) (or (or P15 ?v_34) ?v_73)) (or (or ?v_6 ?v_7) P15)) (or (or ?v_70 P5) ?v_8)) (or (or ?v_32 P30) ?v_44)) (or (or ?v_72 ?v_25) ?v_35)) (or (or ?v_9 ?v_10) P2)) (or (or P2 ?v_22) ?v_106)) (or (or ?v_15 ?v_16) ?v_92)) (or (or ?v_12 ?v_13) ?v_14)) (or (or ?v_64 ?v_15) ?v_16)) (or (or ?v_85 ?v_62) ?v_59)) (or (or ?v_47 ?v_24) ?v_66)) (or (or ?v_18 P11) ?v_3)) (or (or ?v_0 ?v_19) ?v_20)) (or (or ?v_21 ?v_22) ?v_30)) (or (or ?v_110 ?v_78) ?v_164)) (or (or ?v_43 ?v_50) ?v_93)) (or (or ?v_23 ?v_108) ?v_117)) (or (or ?v_182 ?v_25) ?v_53)) (or (or ?v_27 ?v_76) ?v_28)) (or (or ?v_29 ?v_74) ?v_30)) (or (or ?v_122 ?v_16) ?v_31)) (or (or ?v_32 ?v_84) ?v_165)) (or (or ?v_20 P11) ?v_34)) (or (or P8 ?v_35) ?v_69)) (or (or ?v_51 ?v_36) ?v_63)) (or (or ?v_97 ?v_37) ?v_1)) (or (or P14 ?v_38) ?v_39)) (or (or ?v_154 P8) ?v_40)) (or (or ?v_118 ?v_190) ?v_42)) (or (or ?v_29 ?v_54) P13)) (or (or P39 ?v_114) ?v_57)) (or (or ?v_34 ?v_32) ?v_46)) (or (or ?v_43 P17) P2)) (or (or P39 ?v_30) ?v_6)) (or (or ?v_44 ?v_45) ?v_24)) (or (or ?v_0 ?v_48) ?v_47)) (or (or ?v_48 P38) ?v_49)) (or (or P8 ?v_50) ?v_51)) (or (or ?v_52 ?v_53) ?v_54)) (or (or ?v_65 ?v_12) ?v_55)) (or (or ?v_56 ?v_87) ?v_57)) (or (or ?v_13 P37) ?v_197)) (or (or ?v_58 ?v_58) ?v_80)) (or (or ?v_60 ?v_58) ?v_61)) (or (or ?v_62 ?v_63) P10)) (or (or P29 ?v_201) ?v_14)) (or (or ?v_199 ?v_64) ?v_61)) (or (or ?v_166 P16) ?v_66)) (or (or ?v_38 ?v_141) P22)) (or (or ?v_56 ?v_67) ?v_45)) (or (or ?v_35 ?v_22) ?v_137)) (or (or ?v_51 ?v_68) P26)) (or (or ?v_95 ?v_58) ?v_111)) (or (or ?v_70 ?v_158) ?v_127)) (or (or ?v_68 ?v_174) ?v_71)) (or (or ?v_44 P23) P2)) (or (or ?v_72 P2) ?v_64)) (or (or ?v_99 ?v_73) P26)) (or (or ?v_31 ?v_38) P4)) (or (or ?v_74 ?v_75) ?v_3)) (or (or ?v_76 ?v_104) ?v_77)) (or (or ?v_142 ?v_32) ?v_56)) (or (or ?v_14 ?v_34) ?v_78)) (or (or ?v_96 ?v_72) ?v_35)) (or (or ?v_177 ?v_79) ?v_98)) (or (or ?v_66 ?v_80) ?v_81)) (or (or ?v_146 P3) ?v_29)) (or (or ?v_4 ?v_82) ?v_125)) (or (or ?v_83 ?v_56) P23)) (or (or ?v_12 ?v_84) ?v_79)) (or (or ?v_85 ?v_76) ?v_75)) (or (or ?v_86 ?v_15) ?v_204)) (or (or ?v_88 P38) ?v_24)) (or (or ?v_60 ?v_86) ?v_89)) (or (or ?v_90 ?v_28) ?v_48)) (or (or ?v_59 ?v_101) ?v_107)) (or (or ?v_120 ?v_52) ?v_47)) (or (or ?v_20 ?v_28) P13)) (or (or P32 ?v_40) P25)) (or (or ?v_4 ?v_116) ?v_42)) (or (or ?v_100 ?v_65) ?v_92)) (or (or ?v_151 ?v_140) ?v_160)) (or (or ?v_10 P34) ?v_195)) (or (or ?v_46 ?v_143) ?v_133)) (or (or ?v_18 ?v_58) P22)) (or (or P18 ?v_6) ?v_5)) (or (or ?v_95 ?v_72) ?v_68)) (or (or ?v_96 ?v_97) ?v_156)) (or (or ?v_99 P25) ?v_55)) (or (or ?v_44 ?v_100) ?v_162)) (or (or ?v_128 ?v_22) ?v_18)) (or (or ?v_71 ?v_101) ?v_52)) (or (or ?v_105 ?v_37) ?v_47)) (or (or ?v_8 ?v_103) ?v_50)) (or (or ?v_42 ?v_104) P38)) (or (or ?v_99 ?v_82) ?v_105)) (or (or P3 ?v_83) P20)) (or (or ?v_169 ?v_106) ?v_107)) (or (or P1 ?v_3) ?v_108)) (or (or P25 ?v_44) ?v_56)) (or (or ?v_72 ?v_16) ?v_198)) (or (or ?v_109 ?v_110) ?v_0)) (or (or ?v_9 P1) ?v_2)) (or (or ?v_111 ?v_112) ?v_113)) (or (or P37 ?v_114) ?v_15)) (or (or ?v_115 ?v_130) ?v_87)) (or (or ?v_4 P21) ?v_175)) (or (or ?v_28 ?v_167) P33)) (or (or ?v_193 ?v_88) P24)) (or (or ?v_117 ?v_180) ?v_46)) (or (or P33 ?v_20) ?v_43)) (or (or ?v_121 ?v_150) ?v_120)) (or (or ?v_138 ?v_124) ?v_104)) (or (or ?v_79 P19) ?v_122)) (or (or P1 P25) ?v_191)) (or (or ?v_19 ?v_176) ?v_123)) (or (or ?v_83 ?v_124) ?v_125)) (or (or ?v_161 ?v_83) ?v_58)) (or (or ?v_126 ?v_43) P24)) (or (or P31 ?v_54) ?v_23)) (or (or ?v_124 ?v_65) P33)) (or (or ?v_0 ?v_22) ?v_53)) (or (or ?v_101 ?v_42) ?v_18)) (or (or ?v_127 ?v_128) P8)) (or (or ?v_145 ?v_72) ?v_129)) (or (or ?v_55 ?v_30) P17)) (or (or ?v_202 ?v_129) ?v_73)) (or (or ?v_130 P27) ?v_144)) (or (or ?v_189 ?v_67) ?v_131)) (or (or ?v_82 ?v_45) ?v_51)) (or (or ?v_93 P17) ?v_67)) (or (or ?v_29 ?v_107) ?v_205)) (or (or P19 ?v_131) ?v_132)) (or (or ?v_133 ?v_90) ?v_47)) (or (or ?v_134 ?v_135) ?v_62)) (or (or ?v_64 P26) ?v_125)) (or (or ?v_71 P29) ?v_136)) (or (or ?v_113 ?v_131) ?v_89)) (or (or ?v_25 ?v_111) ?v_137)) (or (or ?v_136 P19) P30)) (or (or P14 ?v_2) ?v_170)) (or (or ?v_8 ?v_32) ?v_138)) (or (or ?v_139 ?v_130) ?v_80)) (or (or ?v_74 ?v_140) ?v_83)) (or (or ?v_22 ?v_196) ?v_52)) (or (or P13 ?v_85) ?v_96)) (or (or ?v_113 P16) ?v_47)) (or (or P34 ?v_141) ?v_108)) (or (or ?v_85 ?v_53) ?v_142)) (or (or ?v_143 ?v_113) ?v_144)) (or (or ?v_36 ?v_85) ?v_145)) (or (or ?v_30 (not P6)) ?v_146)) (or (or ?v_133 ?v_147) ?v_42)) (or (or ?v_148 ?v_149) ?v_24)) (or (or ?v_77 ?v_52) ?v_72)) (or (or ?v_49 ?v_157) ?v_20)) (or (or ?v_29 ?v_57) ?v_68)) (or (or ?v_141 ?v_140) ?v_71)) (or (or ?v_151 P21) P31)) (or (or ?v_168 ?v_136) ?v_145)) (or (or ?v_134 ?v_84) ?v_47)) (or (or P5 ?v_152) ?v_153)) (or (or ?v_154 P11) P23)) (or (or ?v_40 ?v_30) P37)) (or (or ?v_153 ?v_114) ?v_173)) (or (or ?v_92 P9) ?v_155)) (or (or ?v_49 ?v_71) P17)) (or (or ?v_0 ?v_146) P30)) (or (or ?v_156 ?v_58) ?v_42)) (or (or ?v_157 P16) P1)) (or (or ?v_19 ?v_133) P13)) (or (or ?v_158 ?v_159) ?v_88)) (or (or P1 ?v_160) P9)) (or (or ?v_61 ?v_181) ?v_44)) (or (or ?v_134 ?v_42) ?v_128)) (or (or ?v_106 ?v_161) ?v_87)) (or (or ?v_162 ?v_73) ?v_163)) (or (or ?v_125 ?v_14) ?v_164)) (or (or ?v_22 ?v_2) P7)) (or (or ?v_171 ?v_71) P24)) (or (or ?v_136 ?v_9) ?v_96)) (or (or ?v_49 ?v_65) ?v_76)) (or (or ?v_3 ?v_53) P31)) (or (or ?v_47 ?v_109) ?v_52)) (or (or P23 ?v_165) P37)) (or (or ?v_150 ?v_60) ?v_2)) (or (or ?v_159 ?v_134) ?v_97)) (or (or ?v_10 P30) P27)) (or (or ?v_166 ?v_54) P1)) (or (or ?v_167 ?v_69) ?v_46)) (or (or ?v_49 ?v_165) P14)) (or (or ?v_85 ?v_128) ?v_35)) (or (or P36 ?v_113) ?v_168)) (or (or ?v_18 ?v_131) ?v_169)) (or (or P23 P36) ?v_115)) (or (or ?v_103 P15) ?v_120)) (or (or ?v_90 ?v_72) ?v_107)) (or (or ?v_170 ?v_147) ?v_22)) (or (or ?v_25 ?v_76) ?v_130)) (or (or ?v_109 P37) ?v_55)) (or (or P34 ?v_23) ?v_147)) (or (or ?v_153 ?v_171) P6)) (or (or P11 ?v_81) ?v_67)) (or (or ?v_18 ?v_168) P1)) (or (or P3 ?v_81) ?v_172)) (or (or P8 ?v_101) P15)) (or (or ?v_55 ?v_10) ?v_19)) (or (or ?v_155 ?v_71) ?v_57)) (or (or ?v_99 ?v_87) P33)) (or (or ?v_46 ?v_48) ?v_173)) (or (or ?v_143 ?v_174) ?v_19)) (or (or ?v_166 ?v_108) ?v_80)) (or (or ?v_14 ?v_62) ?v_104)) (or (or ?v_168 P23) ?v_50)) (or (or ?v_18 ?v_5) ?v_14)) (or (or ?v_69 P29) ?v_200)) (or (or P36 P32) ?v_98)) (or (or ?v_83 ?v_129) ?v_175)) (or (or ?v_77 ?v_117) P31)) (or (or ?v_19 ?v_85) ?v_79)) (or (or ?v_110 ?v_40) P22)) (or (or ?v_143 ?v_36) ?v_27)) (or (or ?v_194 ?v_49) ?v_135)) (or (or ?v_74 ?v_127) ?v_108)) (or (or ?v_192 ?v_132) ?v_137)) (or (or ?v_130 P39) P2)) (or (or ?v_42 ?v_21) ?v_176)) (or (or ?v_68 ?v_177) ?v_167)) (or (or ?v_78 ?v_55) ?v_2)) (or (or ?v_52 ?v_121) ?v_108)) (or (or P20 P24) ?v_38)) (or (or P22 ?v_61) ?v_35)) (or (or ?v_50 ?v_131) ?v_64)) (or (or ?v_110 ?v_178) P25)) (or (or ?v_114 ?v_179) ?v_175)) (or (or P19 ?v_177) ?v_180)) (or (or ?v_38 ?v_152) ?v_16)) (or (or ?v_181 P14) ?v_182)) (or (or ?v_3 ?v_112) ?v_25)) (or (or ?v_74 ?v_46) ?v_173)) (or (or ?v_74 ?v_70) ?v_183)) (or (or ?v_89 ?v_136) ?v_30)) (or (or ?v_109 ?v_71) ?v_97)) (or (or ?v_19 P1) ?v_29)) (or (or ?v_38 ?v_10) ?v_21)) (or (or ?v_124 P38) ?v_143)) (or (or ?v_184 ?v_125) ?v_144)) (or (or P10 ?v_136) ?v_185)) (or (or ?v_118 ?v_184) ?v_151)) (or (or ?v_113 P14) ?v_184)) (or (or ?v_100 ?v_86) ?v_130)) (or (or P37 ?v_7) ?v_68)) (or (or P13 ?v_104) ?v_51)) (or (or P17 ?v_186) ?v_121)) (or (or ?v_4 ?v_188) ?v_164)) (or (or ?v_22 P33) ?v_181)) (or (or ?v_142 ?v_113) ?v_156)) (or (or ?v_187 ?v_81) P34)) (or (or P23 ?v_188) P9)) (or (or ?v_120 P14) ?v_175)) (or (or P1 P32) P35)) (or (or ?v_115 ?v_176) ?v_160)) (or (or ?v_133 ?v_3) ?v_61)) (or (or ?v_84 ?v_164) ?v_24)) (or (or ?v_21 P15) P1)) (or (or (not P4) ?v_58) ?v_84)) (or (or ?v_189 ?v_162) ?v_2)) (or (or ?v_165 ?v_77) ?v_115)) (or (or P8 ?v_190) ?v_42)) (or (or ?v_126 ?v_65) ?v_39)) (or (or ?v_175 P18) ?v_53)) (or (or ?v_9 P22) ?v_95)) (or (or P7 ?v_163) ?v_74)) (or (or ?v_33 ?v_125) P32)) (or (or ?v_2 ?v_9) ?v_172)) (or (or ?v_27 P27) ?v_158)) (or (or ?v_148 ?v_114) P5)) (or (or P7 ?v_141) ?v_191)) (or (or ?v_192 ?v_165) ?v_82)) (or (or ?v_64 ?v_81) ?v_76)) (or (or ?v_176 ?v_14) ?v_35)) (or (or ?v_187 ?v_100) ?v_171)) (or (or ?v_149 ?v_1) ?v_85)) (or (or ?v_49 ?v_147) ?v_21)) (or (or ?v_2 ?v_172) ?v_61)) (or (or ?v_141 ?v_164) ?v_103)) (or (or ?v_154 ?v_79) ?v_110)) (or (or ?v_159 ?v_193) ?v_177)) (or (or ?v_173 ?v_172) P28)) (or (or ?v_167 ?v_144) ?v_50)) (or (or ?v_134 ?v_151) ?v_117)) (or (or ?v_18 ?v_115) P38)) (or (or ?v_115 ?v_177) ?v_137)) (or (or P11 ?v_64) ?v_151)) (or (or ?v_54 ?v_177) ?v_161)) (or (or ?v_83 ?v_83) ?v_66)) (or (or P10 P14) P34)) (or (or ?v_57 ?v_62) P17)) (or (or ?v_36 ?v_147) ?v_32)) (or (or ?v_68 P24) ?v_8)) (or (or ?v_190 ?v_138) ?v_29)) (or (or P39 ?v_34) ?v_30)) (or (or P8 ?v_170) ?v_15)) (or (or ?v_118 ?v_122) ?v_69)) (or (or ?v_185 ?v_4) ?v_121)) (or (or ?v_20 ?v_38) ?v_194)) (or (or ?v_85 ?v_178) ?v_195)) (or (or P24 ?v_67) ?v_122)) (or (or ?v_124 ?v_179) P31)) (or (or ?v_149 ?v_181) ?v_70)) (or (or ?v_68 ?v_196) ?v_16)) (or (or P32 ?v_53) P27)) (or (or ?v_54 ?v_175) P38)) (or (or ?v_109 ?v_37) ?v_184)) (or (or ?v_121 ?v_135) ?v_189)) (or (or ?v_61 ?v_187) ?v_135)) (or (or ?v_197 P3) ?v_192)) (or (or ?v_185 ?v_63) P29)) (or (or ?v_198 ?v_100) P26)) (or (or ?v_14 ?v_89) ?v_25)) (or (or ?v_21 ?v_153) ?v_52)) (or (or ?v_179 P3) P24)) (or (or ?v_2 ?v_36) ?v_45)) (or (or ?v_29 ?v_62) ?v_12)) (or (or P16 ?v_122) ?v_56)) (or (or ?v_25 ?v_113) ?v_0)) (or (or ?v_43 ?v_177) ?v_142)) (or (or ?v_199 ?v_105) ?v_2)) (or (or ?v_140 P21) ?v_19)) (or (or ?v_199 P28) ?v_121)) (or (or ?v_58 ?v_8) ?v_54)) (or (or ?v_84 ?v_177) ?v_161)) (or (or ?v_71 ?v_128) ?v_46)) (or (or ?v_48 ?v_38) ?v_61)) (or (or ?v_96 P27) ?v_90)) (or (or ?v_127 ?v_9) ?v_18)) (or (or P5 ?v_126) ?v_161)) (or (or ?v_74 ?v_97) ?v_22)) (or (or ?v_42 ?v_123) ?v_77)) (or (or ?v_106 P19) ?v_195)) (or (or ?v_153 ?v_169) ?v_191)) (or (or ?v_149 ?v_38) ?v_113)) (or (or ?v_85 ?v_64) ?v_63)) (or (or ?v_21 ?v_24) ?v_14)) (or (or ?v_178 ?v_184) P36)) (or (or ?v_100 ?v_85) ?v_167)) (or (or ?v_176 ?v_51) ?v_131)) (or (or ?v_156 ?v_126) ?v_164)) (or (or ?v_93 ?v_132) ?v_30)) (or (or ?v_133 ?v_141) ?v_199)) (or (or ?v_162 ?v_150) P29)) (or (or ?v_112 ?v_23) ?v_39)) (or (or ?v_116 P6) ?v_126)) (or (or ?v_170 ?v_188) P15)) (or (or ?v_193 ?v_154) P32)) (or (or ?v_194 ?v_16) ?v_89)) (or (or ?v_125 ?v_83) ?v_97)) (or (or ?v_21 ?v_129) ?v_16)) (or (or ?v_39 ?v_23) ?v_121)) (or (or ?v_16 ?v_81) ?v_121)) (or (or P11 ?v_198) ?v_155)) (or (or P13 P8) ?v_181)) (or (or ?v_103 ?v_149) ?v_112)) (or (or ?v_129 ?v_51) P12)) (or (or ?v_45 ?v_171) P38)) (or (or ?v_23 ?v_149) ?v_45)) (or (or ?v_34 P3) ?v_118)) (or (or ?v_133 ?v_85) ?v_6)) (or (or ?v_143 ?v_195) ?v_173)) (or (or ?v_6 ?v_2) ?v_86)) (or (or P29 ?v_132) ?v_109)) (or (or ?v_125 ?v_15) ?v_118)) (or (or ?v_184 ?v_115) ?v_2)) (or (or P18 ?v_169) P23)) (or (or P13 ?v_101) ?v_167)) (or (or ?v_177 ?v_193) ?v_77)) (or (or P4 ?v_186) ?v_142)) (or (or ?v_179 ?v_57) ?v_98)) (or (or ?v_164 ?v_200) ?v_77)) (or (or ?v_163 ?v_149) ?v_197)) (or (or ?v_48 ?v_139) ?v_201)) (or (or ?v_14 ?v_185) ?v_60)) (or (or P14 ?v_76) ?v_129)) (or (or ?v_86 P22) ?v_63)) (or (or ?v_149 ?v_140) ?v_114)) (or (or ?v_57 ?v_170) ?v_82)) (or (or ?v_13 ?v_53) ?v_202)) (or (or ?v_115 ?v_160) P18)) (or (or ?v_177 P35) ?v_78)) (or (or P28 ?v_130) ?v_66)) (or (or ?v_158 ?v_118) ?v_40)) (or (or ?v_187 ?v_80) ?v_175)) (or (or ?v_142 ?v_93) ?v_176)) (or (or ?v_55 ?v_202) ?v_89)) (or (or ?v_114 ?v_85) P16)) (or (or ?v_117 ?v_2) ?v_203)) (or (or ?v_202 ?v_151) P16)) (or (or ?v_40 ?v_157) ?v_74)) (or (or ?v_180 ?v_12) ?v_125)) (or (or ?v_143 ?v_20) P37)) (or (or ?v_179 ?v_4) ?v_159)) (or (or ?v_141 ?v_115) P5)) (or (or ?v_84 ?v_8) P5)) (or (or ?v_72 ?v_125) ?v_167)) (or (or ?v_52 ?v_74) ?v_163)) (or (or ?v_135 ?v_45) ?v_25)) (or (or P21 P36) ?v_197)) (or (or ?v_127 ?v_191) P14)) (or (or P16 ?v_124) ?v_62)) (or (or P13 ?v_84) ?v_83)) (or (or ?v_188 ?v_203) P11)) (or (or ?v_171 ?v_62) ?v_187)) (or (or ?v_22 ?v_110) ?v_14)) (or (or ?v_160 ?v_125) ?v_15)) (or (or ?v_122 ?v_187) ?v_47)) (or (or ?v_7 ?v_147) ?v_120)) (or (or ?v_42 ?v_163) ?v_21)) (or (or ?v_36 ?v_9) P23)) (or (or ?v_182 P23) ?v_77)) (or (or ?v_72 P12) ?v_38)) (or (or ?v_28 ?v_63) P32)) (or (or ?v_39 ?v_58) ?v_15)) (or (or P12 ?v_157) ?v_195)) (or (or ?v_160 P11) ?v_115)) (or (or ?v_57 ?v_128) ?v_12)) (or (or ?v_7 ?v_13) ?v_143)) (or (or ?v_18 P6) ?v_145)) (or (or ?v_122 ?v_164) P6)) (or (or ?v_118 ?v_201) ?v_114)) (or (or ?v_12 ?v_122) ?v_48)) (or (or ?v_25 ?v_56) P2)) (or (or P23 ?v_47) ?v_203)) (or (or P11 ?v_45) ?v_204)) (or (or ?v_118 ?v_53) ?v_51)) (or (or ?v_179 ?v_202) ?v_194)) (or (or ?v_152 ?v_193) ?v_101)) (or (or ?v_88 ?v_36) ?v_199)) (or (or ?v_137 P10) ?v_110)) (or (or P29 ?v_103) ?v_21)) (or (or ?v_113 ?v_77) ?v_90)) (or (or ?v_84 ?v_158) P37)) (or (or ?v_104 ?v_130) P21)) (or (or P4 ?v_27) ?v_135)) (or (or ?v_158 P14) ?v_172)) (or (or P9 P13) ?v_174)) (or (or ?v_75 ?v_78) ?v_167)) (or (or ?v_66 ?v_38) P10)) (or (or ?v_58 P28) ?v_83)) (or (or P3 P15) ?v_52)) (or (or P15 ?v_124) ?v_189)) (or (or ?v_72 ?v_116) P19)) (or (or ?v_30 ?v_205) ?v_90)) (or (or ?v_170 ?v_85) ?v_157)) (or (or P21 ?v_143) P32)) (or (or ?v_196 ?v_25) ?v_62)) (or (or ?v_21 P2) ?v_52)) (or (or ?v_8 ?v_130) ?v_139)) (or (or P29 ?v_66) P9)) (or (or ?v_110 ?v_21) ?v_70)) (or (or ?v_162 ?v_58) ?v_67)) (or (or ?v_185 ?v_179) ?v_61)) (or (or ?v_14 ?v_23) ?v_43))))))))))))))))))))))))))))))
(check-sat)
(exit)
